(set-logic QF_NRA)
(set-info :source |Benchmarks generated from hycomp (https://es-static.fbk.eu/tools/hycomp/). BMC instances of non-linear hybrid automata taken from: Alessandro Cimatti, Sergio Mover, Stefano Tonetta, A quantifier-free SMT encoding of non-linear hybrid automata, FMCAD 2012 and Alessandro Cimatti, Sergio Mover, Stefano Tonetta, Quantier-free encoding of invariants for Hybrid Systems, Formal Methods in System Design. This instance solves a BMC problem of depth 0 and uses the quantifier free encoding with equivalences and lemmas encoding. Contacts: Sergio Mover (mover@fbk.eu), Stefano Tonetta (tonettas@fbk.eu), Alessandro Cimatti (cimatti@fbk.eu).|)
(set-info :smt-lib-version 2.0)
(set-info :category "industrial")
(set-info :status unsat)
;; MathSAT API call trace
;; generated on Mon Mar 19 10:41:33 2012
(declare-fun train2.delta__AT0 () Real)
(declare-fun train2.timer__AT0 () Real)
(declare-fun train1.time__AT0 () Real)
(declare-fun train1.delta__AT0 () Real)
(declare-fun train2.front_position__AT0 () Real)
(declare-fun train1.acceleration__AT0 () Real)
(declare-fun train2.mode.0__AT0 () Bool)
(declare-fun train1.front_position__AT0 () Real)
(declare-fun train1.speed__AT0 () Real)
(declare-fun train2.event_is_timed__AT0 () Bool)
(declare-fun train2.speed__AT0 () Real)
(declare-fun train2.acceleration__AT0 () Real)
(declare-fun train1.timer__AT0 () Real)
(declare-fun train1.mode.0__AT0 () Bool)
(declare-fun train1.event_is_timed__AT0 () Bool)
(declare-fun train2.time__AT0 () Real)
(assert (let ((.def_310 (+ train2.timer__AT0 train2.delta__AT0)))
(let ((.def_321 (<= .def_310 8.0 )))
(let ((.def_327 (not .def_321)))
(let ((.def_85 (<= train2.timer__AT0 8.0 )))
(let ((.def_328 (or .def_85 .def_327)))
(let ((.def_325 (<= 8.0 .def_310)))
(let ((.def_323 (<= 8.0 train2.timer__AT0)))
(let ((.def_324 (not .def_323)))
(let ((.def_326 (or .def_324 .def_325)))
(let ((.def_329 (and .def_326 .def_328)))
(let ((.def_322 (and .def_85 .def_321)))
(let ((.def_330 (and .def_322 .def_329)))
(let ((.def_317 (<= train2.timer__AT0 0.0 )))
(let ((.def_315 (<= .def_310 0.0 )))
(let ((.def_316 (not .def_315)))
(let ((.def_318 (or .def_316 .def_317)))
(let ((.def_84 (<= 0.0 train2.timer__AT0)))
(let ((.def_313 (not .def_84)))
(let ((.def_311 (<= 0.0 .def_310)))
(let ((.def_314 (or .def_311 .def_313)))
(let ((.def_319 (and .def_314 .def_318)))
(let ((.def_312 (and .def_84 .def_311)))
(let ((.def_320 (and .def_312 .def_319)))
(let ((.def_331 (and .def_320 .def_330)))
(let ((.def_272 (* train2.acceleration__AT0 train2.delta__AT0)))
(let ((.def_273 (+ train2.speed__AT0 .def_272)))
(let ((.def_290 (<= .def_273 (/ 417 5))))
(let ((.def_302 (not .def_290)))
(let ((.def_81 (<= train2.speed__AT0 (/ 417 5))))
(let ((.def_303 (or .def_81 .def_302)))
(let ((.def_296 (<= (/ 417 5) train2.speed__AT0)))
(let ((.def_300 (not .def_296)))
(let ((.def_294 (<= (/ 417 5) .def_273)))
(let ((.def_301 (or .def_294 .def_300)))
(let ((.def_304 (and .def_301 .def_303)))
(let ((.def_90 (<= train2.acceleration__AT0 0.0 )))
(let ((.def_305 (or .def_90 .def_304)))
(let ((.def_295 (not .def_294)))
(let ((.def_297 (or .def_295 .def_296)))
(let ((.def_292 (not .def_81)))
(let ((.def_293 (or .def_290 .def_292)))
(let ((.def_298 (and .def_293 .def_297)))
(let ((.def_264 (<= 0.0 train2.acceleration__AT0)))
(let ((.def_299 (or .def_264 .def_298)))
(let ((.def_306 (and .def_299 .def_305)))
(let ((.def_291 (and .def_81 .def_290)))
(let ((.def_307 (and .def_291 .def_306)))
(let ((.def_276 (<= .def_273 0.0 )))
(let ((.def_283 (not .def_276)))
(let ((.def_245 (<= train2.speed__AT0 0.0 )))
(let ((.def_284 (or .def_245 .def_283)))
(let ((.def_274 (<= 0.0 .def_273)))
(let ((.def_80 (<= 0.0 train2.speed__AT0)))
(let ((.def_232 (not .def_80)))
(let ((.def_282 (or .def_232 .def_274)))
(let ((.def_285 (and .def_282 .def_284)))
(let ((.def_286 (or .def_90 .def_285)))
(let ((.def_278 (not .def_274)))
(let ((.def_279 (or .def_80 .def_278)))
(let ((.def_246 (not .def_245)))
(let ((.def_277 (or .def_246 .def_276)))
(let ((.def_280 (and .def_277 .def_279)))
(let ((.def_281 (or .def_264 .def_280)))
(let ((.def_287 (and .def_281 .def_286)))
(let ((.def_275 (and .def_80 .def_274)))
(let ((.def_288 (and .def_275 .def_287)))
(let ((.def_220 (* (/ 1 2) train2.acceleration__AT0)))
(let ((.def_227 (* 2.0 .def_220)))
(let ((.def_228 (* train2.delta__AT0 .def_227)))
(let ((.def_229 (+ train2.speed__AT0 .def_228)))
(let ((.def_243 (<= .def_229 0.0 )))
(let ((.def_244 (not .def_243)))
(let ((.def_267 (or .def_244 .def_245)))
(let ((.def_230 (<= 0.0 .def_229)))
(let ((.def_266 (or .def_230 .def_232)))
(let ((.def_268 (and .def_266 .def_267)))
(let ((.def_269 (or .def_90 .def_268)))
(let ((.def_231 (not .def_230)))
(let ((.def_262 (or .def_80 .def_231)))
(let ((.def_261 (or .def_243 .def_246)))
(let ((.def_263 (and .def_261 .def_262)))
(let ((.def_265 (or .def_263 .def_264)))
(let ((.def_270 (and .def_265 .def_269)))
(let ((.def_258 (and .def_243 .def_245)))
(let ((.def_257 (and .def_80 .def_230)))
(let ((.def_259 (or .def_257 .def_258)))
(let ((.def_222 (* train2.speed__AT0 train2.delta__AT0)))
(let ((.def_219 (* train2.delta__AT0 train2.delta__AT0)))
(let ((.def_221 (* .def_219 .def_220)))
(let ((.def_223 (+ .def_221 .def_222)))
(let ((.def_224 (+ train2.front_position__AT0 .def_223)))
(let ((.def_237 (<= .def_224 0.0 )))
(let ((.def_251 (not .def_237)))
(let ((.def_235 (<= train2.front_position__AT0 0.0 )))
(let ((.def_252 (or .def_235 .def_251)))
(let ((.def_78 (<= 0.0 train2.front_position__AT0)))
(let ((.def_249 (not .def_78)))
(let ((.def_225 (<= 0.0 .def_224)))
(let ((.def_250 (or .def_225 .def_249)))
(let ((.def_253 (and .def_250 .def_252)))
(let ((.def_247 (or .def_244 .def_246)))
(let ((.def_248 (not .def_247)))
(let ((.def_254 (or .def_248 .def_253)))
(let ((.def_239 (not .def_225)))
(let ((.def_240 (or .def_78 .def_239)))
(let ((.def_236 (not .def_235)))
(let ((.def_238 (or .def_236 .def_237)))
(let ((.def_241 (and .def_238 .def_240)))
(let ((.def_233 (or .def_231 .def_232)))
(let ((.def_234 (not .def_233)))
(let ((.def_242 (or .def_234 .def_241)))
(let ((.def_255 (and .def_242 .def_254)))
(let ((.def_226 (and .def_78 .def_225)))
(let ((.def_256 (and .def_226 .def_255)))
(let ((.def_260 (and .def_256 .def_259)))
(let ((.def_271 (and .def_260 .def_270)))
(let ((.def_289 (and .def_271 .def_288)))
(let ((.def_308 (and .def_289 .def_307)))
(let ((.def_94 (<= train2.acceleration__AT0 (/ 7 10))))
(let ((.def_93 (<= (- (/ 7 10)) train2.acceleration__AT0)))
(let ((.def_95 (and .def_93 .def_94)))
(let ((.def_96 (or train2.mode.0__AT0 .def_95)))
(let ((.def_89 (<= (- (/ 7 5)) train2.acceleration__AT0)))
(let ((.def_91 (and .def_89 .def_90)))
(let ((.def_46 (not train2.mode.0__AT0)))
(let ((.def_92 (or .def_46 .def_91)))
(let ((.def_97 (and .def_92 .def_96)))
(let ((.def_309 (and .def_97 .def_308)))
(let ((.def_332 (and .def_309 .def_331)))
(let ((.def_195 (+ train1.timer__AT0 train1.delta__AT0)))
(let ((.def_206 (<= .def_195 8.0 )))
(let ((.def_212 (not .def_206)))
(let ((.def_58 (<= train1.timer__AT0 8.0 )))
(let ((.def_213 (or .def_58 .def_212)))
(let ((.def_210 (<= 8.0 .def_195)))
(let ((.def_208 (<= 8.0 train1.timer__AT0)))
(let ((.def_209 (not .def_208)))
(let ((.def_211 (or .def_209 .def_210)))
(let ((.def_214 (and .def_211 .def_213)))
(let ((.def_207 (and .def_58 .def_206)))
(let ((.def_215 (and .def_207 .def_214)))
(let ((.def_202 (<= train1.timer__AT0 0.0 )))
(let ((.def_200 (<= .def_195 0.0 )))
(let ((.def_201 (not .def_200)))
(let ((.def_203 (or .def_201 .def_202)))
(let ((.def_56 (<= 0.0 train1.timer__AT0)))
(let ((.def_198 (not .def_56)))
(let ((.def_196 (<= 0.0 .def_195)))
(let ((.def_199 (or .def_196 .def_198)))
(let ((.def_204 (and .def_199 .def_203)))
(let ((.def_197 (and .def_56 .def_196)))
(let ((.def_205 (and .def_197 .def_204)))
(let ((.def_216 (and .def_205 .def_215)))
(let ((.def_157 (* train1.acceleration__AT0 train1.delta__AT0)))
(let ((.def_158 (+ train1.speed__AT0 .def_157)))
(let ((.def_175 (<= .def_158 (/ 417 5))))
(let ((.def_187 (not .def_175)))
(let ((.def_52 (<= train1.speed__AT0 (/ 417 5))))
(let ((.def_188 (or .def_52 .def_187)))
(let ((.def_181 (<= (/ 417 5) train1.speed__AT0)))
(let ((.def_185 (not .def_181)))
(let ((.def_179 (<= (/ 417 5) .def_158)))
(let ((.def_186 (or .def_179 .def_185)))
(let ((.def_189 (and .def_186 .def_188)))
(let ((.def_66 (<= train1.acceleration__AT0 0.0 )))
(let ((.def_190 (or .def_66 .def_189)))
(let ((.def_180 (not .def_179)))
(let ((.def_182 (or .def_180 .def_181)))
(let ((.def_177 (not .def_52)))
(let ((.def_178 (or .def_175 .def_177)))
(let ((.def_183 (and .def_178 .def_182)))
(let ((.def_149 (<= 0.0 train1.acceleration__AT0)))
(let ((.def_184 (or .def_149 .def_183)))
(let ((.def_191 (and .def_184 .def_190)))
(let ((.def_176 (and .def_52 .def_175)))
(let ((.def_192 (and .def_176 .def_191)))
(let ((.def_161 (<= .def_158 0.0 )))
(let ((.def_168 (not .def_161)))
(let ((.def_130 (<= train1.speed__AT0 0.0 )))
(let ((.def_169 (or .def_130 .def_168)))
(let ((.def_159 (<= 0.0 .def_158)))
(let ((.def_48 (<= 0.0 train1.speed__AT0)))
(let ((.def_117 (not .def_48)))
(let ((.def_167 (or .def_117 .def_159)))
(let ((.def_170 (and .def_167 .def_169)))
(let ((.def_171 (or .def_66 .def_170)))
(let ((.def_163 (not .def_159)))
(let ((.def_164 (or .def_48 .def_163)))
(let ((.def_131 (not .def_130)))
(let ((.def_162 (or .def_131 .def_161)))
(let ((.def_165 (and .def_162 .def_164)))
(let ((.def_166 (or .def_149 .def_165)))
(let ((.def_172 (and .def_166 .def_171)))
(let ((.def_160 (and .def_48 .def_159)))
(let ((.def_173 (and .def_160 .def_172)))
(let ((.def_105 (* (/ 1 2) train1.acceleration__AT0)))
(let ((.def_112 (* 2.0 .def_105)))
(let ((.def_113 (* train1.delta__AT0 .def_112)))
(let ((.def_114 (+ train1.speed__AT0 .def_113)))
(let ((.def_128 (<= .def_114 0.0 )))
(let ((.def_129 (not .def_128)))
(let ((.def_152 (or .def_129 .def_130)))
(let ((.def_115 (<= 0.0 .def_114)))
(let ((.def_151 (or .def_115 .def_117)))
(let ((.def_153 (and .def_151 .def_152)))
(let ((.def_154 (or .def_66 .def_153)))
(let ((.def_116 (not .def_115)))
(let ((.def_147 (or .def_48 .def_116)))
(let ((.def_146 (or .def_128 .def_131)))
(let ((.def_148 (and .def_146 .def_147)))
(let ((.def_150 (or .def_148 .def_149)))
(let ((.def_155 (and .def_150 .def_154)))
(let ((.def_143 (and .def_128 .def_130)))
(let ((.def_142 (and .def_48 .def_115)))
(let ((.def_144 (or .def_142 .def_143)))
(let ((.def_107 (* train1.speed__AT0 train1.delta__AT0)))
(let ((.def_102 (* train1.delta__AT0 train1.delta__AT0)))
(let ((.def_106 (* .def_102 .def_105)))
(let ((.def_108 (+ .def_106 .def_107)))
(let ((.def_109 (+ train1.front_position__AT0 .def_108)))
(let ((.def_122 (<= .def_109 0.0 )))
(let ((.def_136 (not .def_122)))
(let ((.def_120 (<= train1.front_position__AT0 0.0 )))
(let ((.def_137 (or .def_120 .def_136)))
(let ((.def_54 (<= 0.0 train1.front_position__AT0)))
(let ((.def_134 (not .def_54)))
(let ((.def_110 (<= 0.0 .def_109)))
(let ((.def_135 (or .def_110 .def_134)))
(let ((.def_138 (and .def_135 .def_137)))
(let ((.def_132 (or .def_129 .def_131)))
(let ((.def_133 (not .def_132)))
(let ((.def_139 (or .def_133 .def_138)))
(let ((.def_124 (not .def_110)))
(let ((.def_125 (or .def_54 .def_124)))
(let ((.def_121 (not .def_120)))
(let ((.def_123 (or .def_121 .def_122)))
(let ((.def_126 (and .def_123 .def_125)))
(let ((.def_118 (or .def_116 .def_117)))
(let ((.def_119 (not .def_118)))
(let ((.def_127 (or .def_119 .def_126)))
(let ((.def_140 (and .def_127 .def_139)))
(let ((.def_111 (and .def_54 .def_110)))
(let ((.def_141 (and .def_111 .def_140)))
(let ((.def_145 (and .def_141 .def_144)))
(let ((.def_156 (and .def_145 .def_155)))
(let ((.def_174 (and .def_156 .def_173)))
(let ((.def_193 (and .def_174 .def_192)))
(let ((.def_73 (<= train1.acceleration__AT0 (/ 7 10))))
(let ((.def_72 (<= (- (/ 7 10)) train1.acceleration__AT0)))
(let ((.def_74 (and .def_72 .def_73)))
(let ((.def_75 (or train1.mode.0__AT0 .def_74)))
(let ((.def_65 (<= (- (/ 7 5)) train1.acceleration__AT0)))
(let ((.def_67 (and .def_65 .def_66)))
(let ((.def_29 (not train1.mode.0__AT0)))
(let ((.def_68 (or .def_29 .def_67)))
(let ((.def_76 (and .def_68 .def_75)))
(let ((.def_194 (and .def_76 .def_193)))
(let ((.def_217 (and .def_194 .def_216)))
(let ((.def_333 (and .def_217 .def_332)))
(let ((.def_86 (and .def_84 .def_85)))
(let ((.def_82 (and .def_80 .def_81)))
(let ((.def_59 (and .def_56 .def_58)))
(let ((.def_53 (and .def_48 .def_52)))
(let ((.def_55 (and .def_53 .def_54)))
(let ((.def_60 (and .def_55 .def_59)))
(let ((.def_77 (and .def_60 .def_76)))
(let ((.def_79 (and .def_77 .def_78)))
(let ((.def_83 (and .def_79 .def_82)))
(let ((.def_87 (and .def_83 .def_86)))
(let ((.def_98 (and .def_87 .def_97)))
(let ((.def_43 (= train2.timer__AT0 0.0 )))
(let ((.def_40 (= train2.speed__AT0 0.0 )))
(let ((.def_37 (= train2.front_position__AT0 400.0 )))
(let ((.def_34 (= train2.time__AT0 0.0 )))
(let ((.def_26 (= train1.timer__AT0 0.0 )))
(let ((.def_23 (= train1.speed__AT0 0.0 )))
(let ((.def_20 (= train1.front_position__AT0 0.0 )))
(let ((.def_17 (= train1.time__AT0 0.0 )))
(let ((.def_19 (and .def_17 train1.event_is_timed__AT0)))
(let ((.def_21 (and .def_19 .def_20)))
(let ((.def_24 (and .def_21 .def_23)))
(let ((.def_27 (and .def_24 .def_26)))
(let ((.def_30 (and .def_27 .def_29)))
(let ((.def_32 (and .def_30 train2.event_is_timed__AT0)))
(let ((.def_35 (and .def_32 .def_34)))
(let ((.def_38 (and .def_35 .def_37)))
(let ((.def_41 (and .def_38 .def_40)))
(let ((.def_44 (and .def_41 .def_43)))
(let ((.def_47 (and .def_44 .def_46)))
(let ((.def_99 (and .def_47 .def_98)))
(let ((.def_11 (* (- 1.0) train2.front_position__AT0)))
(let ((.def_12 (+ train1.front_position__AT0 .def_11)))
(let ((.def_13 (<= .def_12 (- 200.0) )))
(let ((.def_14 (not .def_13)))
(let ((.def_100 (and .def_14 .def_99)))
(let ((.def_334 (and .def_100 .def_333)))
.def_334)))))))))))))))))))))))))))))))))))))))))))))))))))))))))))))))))))))))))))))))))))))))))))))))))))))))))))))))))))))))))))))))))))))))))))))))))))))))))))))))))))))))))))))))))))))))))))))))))))))))))))))))))))))))))))))))))))))))))))))))))))))))))))))))))))))))))))))))))))))))))))))))))))))))))
(check-sat)
(exit)
